n = 21;
k = 4;
roles = [
{g, f},
{g, d},
{f, m},
{m, g},
{d, g},
{d, f},
{m, g},
{m, g},
{m, g},
{f, m},
{m, f},
{f, d},
{d, f},
{f, m},
{m, g},
{f, d},
{m, f},
{d, f},
{d, f},
{g, m},
{f, d}
];
num_pairs = 4;
player1 = [9, 21, 5, 12];
player2 = [4, 1, 7, 11];
